\ Equation counts
\     Total        E        G        L        N        X        C        B
\	82	82	0	0
\
\ Variable counts
\                  x        b        i      s1s      s2s       sc       si
\     Total     cont   binary  integer     sos1     sos2    scont     sint
\	60	60

\ Nonzero counts
\     Total    const       NL      DLL
\
\
Minimize
 obj: [ - 13.5 x_1 * x_2 - 11.5 x_1 * x_4 - 17.0 x_1 * x_5 - 4.5 x_1 * x_13 + 4.0 x_1 * x_20 - 14.5 x_1 * x_21 - 21.0 x_1 * x_43 + 10.0 x_1 * x_47 - 9.5 x_1 * x_49 + 16.0 x_1 * x_59 - 13.5 x_2 * x_1 + 15.0 x_2 * x_4 - 15.0 x_2 * x_10 + 2.0 x_2 * x_13 - 17.0 x_2 * x_14 - 14.5 x_2 * x_20 - 10.0 x_2 * x_22 + 12.5 x_2 * x_33 - 20.0 x_2 * x_37 - 8.0 x_2 * x_38 - 20.0 x_2 * x_43 + 8.0 x_2 * x_47 + 16.5 x_2 * x_49 + 20.0 x_2 * x_55 + 0.5 x_2 * x_58 + 4.5 x_2 * x_60 - 5.0 x_3 * x_3 + 3.0 x_3 * x_15 + 6.0 x_3 * x_23 + 18.5 x_3 * x_30 - 3.5 x_3 * x_32 - 17.5 x_3 * x_41 - 5.5 x_3 * x_60 - 11.5 x_4 * x_1 + 15.0 x_4 * x_2 + 11.0 x_4 * x_7 + 18.5 x_4 * x_8 + 18.0 x_4 * x_14 + 21.5 x_4 * x_17 - 15.0 x_4 * x_18 + 1.0 x_4 * x_20 - 6.5 x_4 * x_21 + 2.0 x_4 * x_22 + 8.0 x_4 * x_24 - 19.5 x_4 * x_29 - 16.5 x_4 * x_37 + 14.5 x_4 * x_41 - 7.5 x_4 * x_45 - 12.5 x_4 * x_49 + 24.5 x_4 * x_60 - 17.0 x_5 * x_1 + 13.5 x_5 * x_6 - 1.5 x_5 * x_8 - 14.5 x_5 * x_11 + 2.0 x_5 * x_12 - 1.5 x_5 * x_14 - 17.0 x_5 * x_15 + 18.0 x_5 * x_19 + 10.0 x_5 * x_20 + 10.5 x_5 * x_21 + 17.5 x_5 * x_23 - 15.0 x_5 * x_25 + 3.5 x_5 * x_26 + 14.5 x_5 * x_27 + 12.0 x_5 * x_28 + 1.5 x_5 * x_30 + 22.0 x_5 * x_32 - 13.5 x_5 * x_41 - 18.5 x_5 * x_49 - 16.0 x_5 * x_53 + 14.5 x_5 * x_55 + 19.0 x_5 * x_57 + 15.5 x_5 * x_58 + 17.5 x_5 * x_59 + 13.5 x_6 * x_5 + 24.5 x_6 * x_43 + 1.0 x_6 * x_44 - 1.0 x_6 * x_45 - 14.0 x_6 * x_47 + 2.0 x_6 * x_48 - 10.5 x_6 * x_49 + 11.0 x_7 * x_4 - 2.5 x_7 * x_9 - 9.0 x_7 * x_12 + 9.5 x_7 * x_13 - 2.5 x_7 * x_17 + 22.5 x_7 * x_18 - 24.5 x_7 * x_19 + 20.5 x_7 * x_20 - 8.5 x_7 * x_21 + 1.5 x_7 * x_27 + 15.0 x_7 * x_32 + 4.0 x_7 * x_37 - 19.5 x_7 * x_46 - 22.5 x_7 * x_47 - 16.0 x_7 * x_50 - 10.0 x_7 * x_53 - 21.5 x_7 * x_54 - 9.0 x_7 * x_55 + 18.5 x_8 * x_4 - 1.5 x_8 * x_5 - 1.0 x_8 * x_19 + 11.5 x_8 * x_20 - 3.5 x_8 * x_31 + 4.0 x_8 * x_40 - 21.5 x_8 * x_42 + 11.0 x_8 * x_44 - 11.5 x_8 * x_46 - 18.0 x_8 * x_54 - 13.5 x_8 * x_56 - 5.5 x_8 * x_59 - 2.5 x_9 * x_7 - 10.5 x_9 * x_12 + 17.5 x_9 * x_14 - 11.0 x_9 * x_19 + 2.5 x_9 * x_21 - 2.0 x_9 * x_25 - 10.5 x_9 * x_45 + 8.5 x_9 * x_51 - 15.0 x_10 * x_2 - 14.0 x_10 * x_13 + 9.0 x_10 * x_16 + 10.0 x_10 * x_24 - 16.0 x_10 * x_28 + 9.5 x_10 * x_43 + 17.5 x_10 * x_44 - 5.5 x_10 * x_53 - 14.5 x_11 * x_5 - 7.0 x_11 * x_11 - 1.5 x_11 * x_15 - 17.0 x_11 * x_20 - 6.0 x_11 * x_31 + 8.0 x_11 * x_37 - 3.5 x_11 * x_43 + 1.5 x_11 * x_52 + 2.0 x_12 * x_5 - 9.0 x_12 * x_7 - 10.5 x_12 * x_9 + 6.5 x_12 * x_19 - 9.0 x_12 * x_21 + 22.5 x_12 * x_25 - 19.0 x_12 * x_26 + 17.5 x_12 * x_29 - 5.5 x_12 * x_34 - 9.5 x_12 * x_35 - 24.0 x_12 * x_44 - 4.5 x_12 * x_45 + 3.5 x_12 * x_51 + 19.5 x_12 * x_57 + 19.0 x_12 * x_58 - 4.5 x_13 * x_1 + 2.0 x_13 * x_2 + 9.5 x_13 * x_7 - 14.0 x_13 * x_10 - 4.0 x_13 * x_19 + 19.0 x_13 * x_24 + 8.5 x_13 * x_31 + 16.5 x_13 * x_35 + 23.5 x_13 * x_46 - 5.0 x_13 * x_47 + 14.5 x_13 * x_50 + 9.0 x_13 * x_54 - 2.5 x_13 * x_56 - 1.5 x_13 * x_59 - 17.0 x_14 * x_2 + 18.0 x_14 * x_4 - 1.5 x_14 * x_5 + 17.5 x_14 * x_9 - 1.0 x_14 * x_14 + 20.5 x_14 * x_15 + 24.5 x_14 * x_16 + 1.5 x_14 * x_19 - 5.5 x_14 * x_20 + 3.0 x_14 * x_28 - 17.0 x_14 * x_32 + 11.5 x_14 * x_36 + 12.0 x_14 * x_40 - 0.5 x_14 * x_44 + 9.5 x_14 * x_55 + 3.0 x_15 * x_3 - 17.0 x_15 * x_5 - 1.5 x_15 * x_11 + 20.5 x_15 * x_14 + 14.0 x_15 * x_20 - 16.0 x_15 * x_22 + 21.5 x_15 * x_23 + 11.0 x_15 * x_28 - 22.0 x_15 * x_29 + 11.0 x_15 * x_57 + 9.0 x_15 * x_58 + 9.0 x_16 * x_10 + 24.5 x_16 * x_14 - 9.5 x_16 * x_16 + 7.5 x_16 * x_45 + 8.0 x_16 * x_48 - 4.0 x_16 * x_54 + 9.0 x_16 * x_57 + 21.5 x_17 * x_4 - 2.5 x_17 * x_7 + 20.0 x_17 * x_22 + 23.0 x_17 * x_36 + 20.0 x_17 * x_43 - 22.0 x_17 * x_46 - 15.5 x_17 * x_48 - 11.5 x_17 * x_50 + 0.5 x_17 * x_57 - 15.0 x_18 * x_4 + 22.5 x_18 * x_7 - 22.5 x_18 * x_20 + 18.5 x_18 * x_32 - 11.0 x_18 * x_38 + 5.5 x_18 * x_42 - 8.0 x_18 * x_51 - 7.0 x_18 * x_55 - 17.5 x_18 * x_58 - 20.5 x_18 * x_59 + 18.0 x_19 * x_5 - 24.5 x_19 * x_7 - 1.0 x_19 * x_8 - 11.0 x_19 * x_9 + 6.5 x_19 * x_12 - 4.0 x_19 * x_13 + 1.5 x_19 * x_14 - 3.0 x_19 * x_23 + 20.5 x_19 * x_31 - 8.5 x_19 * x_32 + 17.0 x_19 * x_33 - 11.0 x_19 * x_40 - 22.0 x_19 * x_41 + 16.5 x_19 * x_50 - 9.0 x_19 * x_51 + 4.0 x_20 * x_1 - 14.5 x_20 * x_2 + 1.0 x_20 * x_4 + 10.0 x_20 * x_5 + 20.5 x_20 * x_7 + 11.5 x_20 * x_8 - 17.0 x_20 * x_11 - 5.5 x_20 * x_14 + 14.0 x_20 * x_15 - 22.5 x_20 * x_18 - 22.0 x_20 * x_23 - 16.0 x_20 * x_27 - 6.5 x_20 * x_37 + 22.0 x_20 * x_43 - 19.5 x_20 * x_52 + 10.5 x_20 * x_56 + 9.0 x_20 * x_57 - 14.5 x_21 * x_1 - 6.5 x_21 * x_4 + 10.5 x_21 * x_5 - 8.5 x_21 * x_7 + 2.5 x_21 * x_9 - 9.0 x_21 * x_12 - 0.5 x_21 * x_24 - 7.0 x_21 * x_25 - 12.5 x_21 * x_41 - 0.5 x_21 * x_45 - 10.0 x_21 * x_46 - 14.0 x_21 * x_47 - 6.5 x_21 * x_50 + 16.0 x_21 * x_51 + 24.5 x_21 * x_53 - 10.0 x_22 * x_2 + 2.0 x_22 * x_4 - 16.0 x_22 * x_15 + 20.0 x_22 * x_17 + 8.0 x_22 * x_24 + 21.0 x_22 * x_26 + 10.0 x_22 * x_40 - 15.5 x_22 * x_46 - 18.0 x_22 * x_49 + 1.0 x_22 * x_53 - 21.0 x_22 * x_59 + 6.0 x_23 * x_3 + 17.5 x_23 * x_5 + 21.5 x_23 * x_15 - 3.0 x_23 * x_19 - 22.0 x_23 * x_20 - 19.5 x_23 * x_24 - 13.5 x_23 * x_35 - 1.5 x_23 * x_38 + 17.5 x_23 * x_43 - 13.0 x_23 * x_45 + 7.5 x_23 * x_51 - 0.5 x_23 * x_54 - 7.5 x_23 * x_56 + 8.0 x_24 * x_4 + 10.0 x_24 * x_10 + 19.0 x_24 * x_13 - 0.5 x_24 * x_21 + 8.0 x_24 * x_22 - 19.5 x_24 * x_23 + 12.5 x_24 * x_25 - 6.5 x_24 * x_27 + 22.0 x_24 * x_28 + 17.5 x_24 * x_34 + 13.5 x_24 * x_38 - 4.0 x_24 * x_39 - 11.0 x_24 * x_41 - 4.0 x_24 * x_47 - 14.5 x_24 * x_54 + 18.5 x_24 * x_56 + 5.0 x_24 * x_57 - 15.0 x_25 * x_5 - 2.0 x_25 * x_9 + 22.5 x_25 * x_12 - 7.0 x_25 * x_21 + 12.5 x_25 * x_24 + 3.0 x_25 * x_29 - 18.0 x_25 * x_50 - 1.0 x_25 * x_51 - 6.5 x_25 * x_59 + 3.5 x_26 * x_5 - 19.0 x_26 * x_12 + 21.0 x_26 * x_22 - 9.0 x_26 * x_32 + 12.5 x_26 * x_34 - 17.0 x_26 * x_38 - 21.0 x_26 * x_42 - 10.0 x_26 * x_43 + 3.0 x_26 * x_49 - 23.5 x_26 * x_54 - 17.0 x_26 * x_56 + 14.5 x_27 * x_5 + 1.5 x_27 * x_7 - 16.0 x_27 * x_20 - 6.5 x_27 * x_24 + 10.0 x_27 * x_27 - 1.5 x_27 * x_28 + 1.0 x_27 * x_29 - 17.0 x_27 * x_35 - 23.0 x_27 * x_36 + 1.0 x_27 * x_37 - 4.5 x_27 * x_44 - 3.5 x_27 * x_50 - 8.5 x_27 * x_57 - 6.5 x_27 * x_58 + 12.0 x_28 * x_5 - 16.0 x_28 * x_10 + 3.0 x_28 * x_14 + 11.0 x_28 * x_15 + 22.0 x_28 * x_24 - 1.5 x_28 * x_27 - 7.0 x_28 * x_31 + 22.0 x_28 * x_35 + 14.5 x_28 * x_37 + 7.0 x_28 * x_44 + 12.0 x_28 * x_48 - 16.0 x_28 * x_50 - 0.5 x_28 * x_53 + 16.5 x_28 * x_57 - 3.0 x_28 * x_60 - 19.5 x_29 * x_4 + 17.5 x_29 * x_12 - 22.0 x_29 * x_15 + 3.0 x_29 * x_25 + 1.0 x_29 * x_27 - 20.5 x_29 * x_31 + 2.0 x_29 * x_37 - 14.0 x_29 * x_40 - 13.5 x_29 * x_47 - 20.5 x_29 * x_51 + 23.5 x_29 * x_55 - 21.0 x_29 * x_57 + 18.5 x_30 * x_3 + 1.5 x_30 * x_5 - 21.5 x_30 * x_32 - 19.0 x_30 * x_35 - 10.5 x_30 * x_41 + 8.0 x_30 * x_46 - 5.0 x_30 * x_47 - 1.0 x_30 * x_50 + 20.0 x_30 * x_60 - 3.5 x_31 * x_8 - 6.0 x_31 * x_11 + 8.5 x_31 * x_13 + 20.5 x_31 * x_19 - 7.0 x_31 * x_28 - 20.5 x_31 * x_29 + 8.5 x_31 * x_37 + 0.5 x_31 * x_43 - 10.5 x_31 * x_48 - 3.5 x_32 * x_3 + 22.0 x_32 * x_5 + 15.0 x_32 * x_7 - 17.0 x_32 * x_14 + 18.5 x_32 * x_18 - 8.5 x_32 * x_19 - 9.0 x_32 * x_26 - 21.5 x_32 * x_30 + 7.5 x_32 * x_37 - 3.5 x_32 * x_38 + 17.0 x_32 * x_44 + 19.5 x_32 * x_45 - 9.5 x_32 * x_47 - 12.0 x_32 * x_50 - 15.5 x_32 * x_57 + 12.5 x_33 * x_2 + 17.0 x_33 * x_19 + 19.0 x_33 * x_35 - 24.0 x_33 * x_38 - 2.5 x_33 * x_41 + 12.5 x_33 * x_45 - 17.0 x_33 * x_46 + 13.0 x_33 * x_48 - 5.5 x_34 * x_12 + 17.5 x_34 * x_24 + 12.5 x_34 * x_26 - 9.0 x_34 * x_35 + 6.0 x_34 * x_40 - 5.0 x_34 * x_42 + 10.0 x_34 * x_43 - 9.5 x_35 * x_12 + 16.5 x_35 * x_13 - 13.5 x_35 * x_23 - 17.0 x_35 * x_27 + 22.0 x_35 * x_28 - 19.0 x_35 * x_30 + 19.0 x_35 * x_33 - 9.0 x_35 * x_34 + 21.0 x_35 * x_35 - 5.0 x_35 * x_53 + 10.5 x_35 * x_58 + 17.0 x_35 * x_60 + 11.5 x_36 * x_14 + 23.0 x_36 * x_17 - 23.0 x_36 * x_27 - 4.5 x_36 * x_41 - 7.0 x_36 * x_44 - 12.0 x_36 * x_47 + 2.0 x_36 * x_51 - 24.0 x_36 * x_56 + 20.5 x_36 * x_58 - 20.0 x_37 * x_2 - 16.5 x_37 * x_4 + 4.0 x_37 * x_7 + 8.0 x_37 * x_11 - 6.5 x_37 * x_20 + 1.0 x_37 * x_27 + 14.5 x_37 * x_28 + 2.0 x_37 * x_29 + 8.5 x_37 * x_31 + 7.5 x_37 * x_32 - 16.5 x_37 * x_43 - 19.5 x_37 * x_49 - 21.0 x_37 * x_50 - 8.0 x_38 * x_2 - 11.0 x_38 * x_18 - 1.5 x_38 * x_23 + 13.5 x_38 * x_24 - 17.0 x_38 * x_26 - 3.5 x_38 * x_32 - 24.0 x_38 * x_33 + 24.5 x_38 * x_43 + 13.0 x_38 * x_49 - 15.5 x_38 * x_50 - 4.0 x_39 * x_24 - 19.5 x_39 * x_44 - 21.5 x_39 * x_46 - 19.5 x_39 * x_48 - 3.0 x_39 * x_55 + 13.5 x_39 * x_56 - 18.0 x_39 * x_58 + 9.0 x_39 * x_59 + 4.0 x_40 * x_8 + 12.0 x_40 * x_14 - 11.0 x_40 * x_19 + 10.0 x_40 * x_22 - 14.0 x_40 * x_29 + 6.0 x_40 * x_34 + 2.5 x_40 * x_54 - 4.5 x_40 * x_57 - 17.5 x_41 * x_3 + 14.5 x_41 * x_4 - 13.5 x_41 * x_5 - 22.0 x_41 * x_19 - 12.5 x_41 * x_21 - 11.0 x_41 * x_24 - 10.5 x_41 * x_30 - 2.5 x_41 * x_33 - 4.5 x_41 * x_36 + 4.0 x_41 * x_41 + 17.5 x_41 * x_42 - 1.0 x_41 * x_45 + 10.0 x_41 * x_49 - 9.0 x_41 * x_51 - 21.5 x_42 * x_8 + 5.5 x_42 * x_18 - 21.0 x_42 * x_26 - 5.0 x_42 * x_34 + 17.5 x_42 * x_41 - 2.0 x_42 * x_43 + 11.0 x_42 * x_48 + 14.5 x_42 * x_54 + 13.5 x_42 * x_55 + 7.0 x_42 * x_58 - 21.0 x_43 * x_1 - 20.0 x_43 * x_2 + 24.5 x_43 * x_6 + 9.5 x_43 * x_10 - 3.5 x_43 * x_11 + 20.0 x_43 * x_17 + 22.0 x_43 * x_20 + 17.5 x_43 * x_23 - 10.0 x_43 * x_26 + 0.5 x_43 * x_31 + 10.0 x_43 * x_34 - 16.5 x_43 * x_37 + 24.5 x_43 * x_38 - 2.0 x_43 * x_42 - 16.0 x_43 * x_45 + 23.5 x_43 * x_46 + 12.0 x_43 * x_57 - 4.5 x_43 * x_59 + 1.0 x_44 * x_6 + 11.0 x_44 * x_8 + 17.5 x_44 * x_10 - 24.0 x_44 * x_12 - 0.5 x_44 * x_14 - 4.5 x_44 * x_27 + 7.0 x_44 * x_28 + 17.0 x_44 * x_32 - 7.0 x_44 * x_36 - 19.5 x_44 * x_39 - 14.5 x_44 * x_48 - 5.5 x_44 * x_52 - 7.5 x_45 * x_4 - 1.0 x_45 * x_6 - 10.5 x_45 * x_9 - 4.5 x_45 * x_12 + 7.5 x_45 * x_16 - 0.5 x_45 * x_21 - 13.0 x_45 * x_23 + 19.5 x_45 * x_32 + 12.5 x_45 * x_33 - 1.0 x_45 * x_41 - 16.0 x_45 * x_43 + 12.0 x_45 * x_49 + 18.5 x_45 * x_57 + 14.0 x_45 * x_58 - 19.5 x_46 * x_7 - 11.5 x_46 * x_8 + 23.5 x_46 * x_13 - 22.0 x_46 * x_17 - 10.0 x_46 * x_21 - 15.5 x_46 * x_22 + 8.0 x_46 * x_30 - 17.0 x_46 * x_33 - 21.5 x_46 * x_39 + 23.5 x_46 * x_43 - 5.0 x_46 * x_46 + 5.0 x_46 * x_48 + 11.0 x_46 * x_59 + 10.0 x_47 * x_1 + 8.0 x_47 * x_2 - 14.0 x_47 * x_6 - 22.5 x_47 * x_7 - 5.0 x_47 * x_13 - 14.0 x_47 * x_21 - 4.0 x_47 * x_24 - 13.5 x_47 * x_29 - 5.0 x_47 * x_30 - 9.5 x_47 * x_32 - 12.0 x_47 * x_36 - 22.0 x_47 * x_47 - 15.5 x_47 * x_53 + 11.5 x_47 * x_58 + 2.0 x_48 * x_6 + 8.0 x_48 * x_16 - 15.5 x_48 * x_17 + 12.0 x_48 * x_28 - 10.5 x_48 * x_31 + 13.0 x_48 * x_33 - 19.5 x_48 * x_39 + 11.0 x_48 * x_42 - 14.5 x_48 * x_44 + 5.0 x_48 * x_46 - 17.5 x_48 * x_50 + 11.5 x_48 * x_59 - 9.5 x_49 * x_1 + 16.5 x_49 * x_2 - 12.5 x_49 * x_4 - 18.5 x_49 * x_5 - 10.5 x_49 * x_6 - 18.0 x_49 * x_22 + 3.0 x_49 * x_26 - 19.5 x_49 * x_37 + 13.0 x_49 * x_38 + 10.0 x_49 * x_41 + 12.0 x_49 * x_45 + 23.5 x_49 * x_49 + 22.0 x_49 * x_53 - 16.0 x_50 * x_7 + 14.5 x_50 * x_13 - 11.5 x_50 * x_17 + 16.5 x_50 * x_19 - 6.5 x_50 * x_21 - 18.0 x_50 * x_25 - 3.5 x_50 * x_27 - 16.0 x_50 * x_28 - 1.0 x_50 * x_30 - 12.0 x_50 * x_32 - 21.0 x_50 * x_37 - 15.5 x_50 * x_38 - 17.5 x_50 * x_48 + 24.5 x_50 * x_54 + 16.0 x_50 * x_55 + 13.5 x_50 * x_59 + 8.5 x_51 * x_9 + 3.5 x_51 * x_12 - 8.0 x_51 * x_18 - 9.0 x_51 * x_19 + 16.0 x_51 * x_21 + 7.5 x_51 * x_23 - 1.0 x_51 * x_25 - 20.5 x_51 * x_29 + 2.0 x_51 * x_36 - 9.0 x_51 * x_41 + 20.0 x_51 * x_58 + 1.5 x_52 * x_11 - 19.5 x_52 * x_20 - 5.5 x_52 * x_44 - 22.0 x_52 * x_52 - 16.0 x_53 * x_5 - 10.0 x_53 * x_7 - 5.5 x_53 * x_10 + 24.5 x_53 * x_21 + 1.0 x_53 * x_22 - 0.5 x_53 * x_28 - 5.0 x_53 * x_35 - 15.5 x_53 * x_47 + 22.0 x_53 * x_49 + 13.0 x_53 * x_57 - 17.5 x_53 * x_60 - 21.5 x_54 * x_7 - 18.0 x_54 * x_8 + 9.0 x_54 * x_13 - 4.0 x_54 * x_16 - 0.5 x_54 * x_23 - 14.5 x_54 * x_24 - 23.5 x_54 * x_26 + 2.5 x_54 * x_40 + 14.5 x_54 * x_42 + 24.5 x_54 * x_50 - 4.5 x_54 * x_55 + 20.0 x_55 * x_2 + 14.5 x_55 * x_5 - 9.0 x_55 * x_7 + 9.5 x_55 * x_14 - 7.0 x_55 * x_18 + 23.5 x_55 * x_29 - 3.0 x_55 * x_39 + 13.5 x_55 * x_42 + 16.0 x_55 * x_50 - 4.5 x_55 * x_54 - 13.5 x_56 * x_8 - 2.5 x_56 * x_13 + 10.5 x_56 * x_20 - 7.5 x_56 * x_23 + 18.5 x_56 * x_24 - 17.0 x_56 * x_26 - 24.0 x_56 * x_36 + 13.5 x_56 * x_39 + 18.5 x_56 * x_57 + 19.0 x_57 * x_5 + 19.5 x_57 * x_12 + 11.0 x_57 * x_15 + 9.0 x_57 * x_16 + 0.5 x_57 * x_17 + 9.0 x_57 * x_20 + 5.0 x_57 * x_24 - 8.5 x_57 * x_27 + 16.5 x_57 * x_28 - 21.0 x_57 * x_29 - 15.5 x_57 * x_32 - 4.5 x_57 * x_40 + 12.0 x_57 * x_43 + 18.5 x_57 * x_45 + 13.0 x_57 * x_53 + 18.5 x_57 * x_56 + 0.5 x_58 * x_2 + 15.5 x_58 * x_5 + 19.0 x_58 * x_12 + 9.0 x_58 * x_15 - 17.5 x_58 * x_18 - 6.5 x_58 * x_27 + 10.5 x_58 * x_35 + 20.5 x_58 * x_36 - 18.0 x_58 * x_39 + 7.0 x_58 * x_42 + 14.0 x_58 * x_45 + 11.5 x_58 * x_47 + 20.0 x_58 * x_51 + 16.0 x_59 * x_1 + 17.5 x_59 * x_5 - 5.5 x_59 * x_8 - 1.5 x_59 * x_13 - 20.5 x_59 * x_18 - 21.0 x_59 * x_22 - 6.5 x_59 * x_25 + 9.0 x_59 * x_39 - 4.5 x_59 * x_43 + 11.0 x_59 * x_46 + 11.5 x_59 * x_48 + 13.5 x_59 * x_50 + 4.5 x_60 * x_2 - 5.5 x_60 * x_3 + 24.5 x_60 * x_4 - 3.0 x_60 * x_28 + 20.0 x_60 * x_30 + 17.0 x_60 * x_35 - 17.5 x_60 * x_53 + 12.5 x_60 * x_60 ] + 0.0 x_1 + 0.0 x_2 + 0.0 x_3 + 0.0 x_4 + 0.0 x_5 + 0.0 x_6 + 42.0 x_7 + 0.0 x_8 + 0.0 x_9 + 0.0 x_10 + 0.0 x_11 + 0.0 x_12 + 0.0 x_13 - 34.0 x_14 + 0.0 x_15 + 0.0 x_16 + 0.0 x_17 + 0.0 x_18 + 0.0 x_19 + 0.0 x_20 + 0.0 x_21 + 0.0 x_22 + 0.0 x_23 + 11.0 x_24 + 0.0 x_25 + 0.0 x_26 + 0.0 x_27 + 0.0 x_28 + 15.0 x_29 + 31.0 x_30 + 0.0 x_31 + 0.0 x_32 + 0.0 x_33 + 0.0 x_34 + 0.0 x_35 + 36.0 x_36 - 3.0 x_37 - 11.0 x_38 + 0.0 x_39 + 0.0 x_40 + 0.0 x_41 + 0.0 x_42 + 0.0 x_43 + 0.0 x_44 + 0.0 x_45 + 0.0 x_46 + 0.0 x_47 + 0.0 x_48 + 0.0 x_49 + 0.0 x_50 + 0.0 x_51 + 0.0 x_52 + 24.0 x_53 + 0.0 x_54 + 0.0 x_55 + 0.0 x_56 + 0.0 x_57 + 45.0 x_58 + 0.0 x_59 + 0.0 x_60

Subject To
 e2: [  x_1 * x_49 ] = 0.0
 e3: [  x_1 * x_59 ] = 0.0
 e4: [  x_3 * x_41 ] = 0.0
 e5: [  x_4 * x_18 ] = 0.0
 e6: [  x_4 * x_24 ] = 0.0
 e7: [  x_5 * x_30 ] = 0.0
 e8: [  x_7 * x_12 ] = 0.0
 e9: [  x_7 * x_53 ] = 0.0
 e10: [  x_8 * x_31 ] = 0.0
 e11: [  x_9 * x_25 ] = 0.0
 e12: [  x_10 * x_13 ] = 0.0
 e13: [  x_11 * x_15 ] = 0.0
 e14: [  x_11 * x_31 ] = 0.0
 e15: [  x_11 * x_43 ] = 0.0
 e16: [  x_12 * x_7 ] = 0.0
 e17: [  x_12 * x_9 ] = 0.0
 e18: [  x_12 * x_19 ] = 0.0
 e19: [  x_12 * x_51 ] = 0.0
 e20: [  x_13 * x_31 ] = 0.0
 e21: [  x_13 * x_46 ] = 0.0
 e22: [  x_13 * x_50 ] = 0.0
 e23: [  x_15 * x_29 ] = 0.0
 e24: [  x_16 * x_10 ] = 0.0
 e25: [  x_16 * x_16 ] = 0.0
 e26: [  x_16 * x_45 ] = 0.0
 e27: [  x_17 * x_7 ] = 0.0
 e28: [  x_17 * x_46 ] = 0.0
 e29: [  x_17 * x_50 ] = 0.0
 e30: [  x_19 * x_5 ] = 0.0
 e31: [  x_19 * x_40 ] = 0.0
 e32: [  x_20 * x_27 ] = 0.0
 e33: [  x_21 * x_51 ] = 0.0
 e34: [  x_22 * x_26 ] = 0.0
 e35: [  x_22 * x_40 ] = 0.0
 e36: [  x_22 * x_49 ] = 0.0
 e37: [  x_23 * x_38 ] = 0.0
 e38: [  x_24 * x_10 ] = 0.0
 e39: [  x_24 * x_27 ] = 0.0
 e40: [  x_24 * x_38 ] = 0.0
 e41: [  x_25 * x_9 ] = 0.0
 e42: [  x_25 * x_51 ] = 0.0
 e43: [  x_27 * x_28 ] = 0.0
 e44: [  x_27 * x_37 ] = 0.0
 e45: [  x_27 * x_50 ] = 0.0
 e46: [  x_28 * x_5 ] = 0.0
 e47: [  x_28 * x_60 ] = 0.0
 e48: [  x_31 * x_11 ] = 0.0
 e49: [  x_31 * x_43 ] = 0.0
 e50: [  x_32 * x_38 ] = 0.0
 e51: [  x_32 * x_57 ] = 0.0
 e52: [  x_33 * x_46 ] = 0.0
 e53: [  x_34 * x_35 ] = 0.0
 e54: [  x_34 * x_40 ] = 0.0
 e55: [  x_35 * x_28 ] = 0.0
 e56: [  x_35 * x_58 ] = 0.0
 e57: [  x_37 * x_11 ] = 0.0
 e58: [  x_39 * x_56 ] = 0.0
 e59: [  x_39 * x_58 ] = 0.0
 e60: [  x_41 * x_3 ] = 0.0
 e61: [  x_41 * x_4 ] = 0.0
 e62: [  x_42 * x_41 ] = 0.0
 e63: [  x_42 * x_55 ] = 0.0
 e64: [  x_43 * x_2 ] = 0.0
 e65: [  x_43 * x_20 ] = 0.0
 e66: [  x_43 * x_23 ] = 0.0
 e67: [  x_43 * x_34 ] = 0.0
 e68: [  x_43 * x_37 ] = 0.0
 e69: [  x_43 * x_42 ] = 0.0
 e70: [  x_44 * x_48 ] = 0.0
 e71: [  x_45 * x_9 ] = 0.0
 e72: [  x_45 * x_12 ] = 0.0
 e73: [  x_45 * x_32 ] = 0.0
 e74: [  x_45 * x_41 ] = 0.0
 e75: [  x_47 * x_30 ] = 0.0
 e76: [  x_48 * x_31 ] = 0.0
 e77: [  x_50 * x_21 ] = 0.0
 e78: [  x_51 * x_29 ] = 0.0
 e79: [  x_53 * x_28 ] = 0.0
 e80: [  x_57 * x_53 ] = 0.0
 e81: [  x_58 * x_42 ] = 0.0
 e82: [  x_58 * x_47 ] = 0.0
 e83: [  x_60 * x_4 ] = 0.0

Bounds
 x_1 <= 1.0
 x_2 <= 1.0
 x_3 <= 1.0
 x_4 <= 1.0
 x_5 <= 1.0
 x_6 <= 1.0
 x_7 <= 1.0
 x_8 <= 1.0
 x_9 <= 1.0
 x_10 <= 1.0
 x_11 <= 1.0
 x_12 <= 1.0
 x_13 <= 1.0
 x_14 <= 1.0
 x_15 <= 1.0
 x_16 <= 1.0
 x_17 <= 1.0
 x_18 <= 1.0
 x_19 <= 1.0
 x_20 <= 1.0
 x_21 <= 1.0
 x_22 <= 1.0
 x_23 <= 1.0
 x_24 <= 1.0
 x_25 <= 1.0
 x_26 <= 1.0
 x_27 <= 1.0
 x_28 <= 1.0
 x_29 <= 1.0
 x_30 <= 1.0
 x_31 <= 1.0
 x_32 <= 1.0
 x_33 <= 1.0
 x_34 <= 1.0
 x_35 <= 1.0
 x_36 <= 1.0
 x_37 <= 1.0
 x_38 <= 1.0
 x_39 <= 1.0
 x_40 <= 1.0
 x_41 <= 1.0
 x_42 <= 1.0
 x_43 <= 1.0
 x_44 <= 1.0
 x_45 <= 1.0
 x_46 <= 1.0
 x_47 <= 1.0
 x_48 <= 1.0
 x_49 <= 1.0
 x_50 <= 1.0
 x_51 <= 1.0
 x_52 <= 1.0
 x_53 <= 1.0
 x_54 <= 1.0
 x_55 <= 1.0
 x_56 <= 1.0
 x_57 <= 1.0
 x_58 <= 1.0
 x_59 <= 1.0
 x_60 <= 1.0

End